; benchmark generated from python API
(set-info :status unknown)
(declare-fun stdin0 () (_ BitVec 8))
(declare-fun stdin1 () (_ BitVec 8))
(declare-fun stdin2 () (_ BitVec 8))
(declare-fun stdin3 () (_ BitVec 8))
(declare-fun stdin4 () (_ BitVec 8))
(declare-fun stdin5 () (_ BitVec 8))
(declare-fun stdin6 () (_ BitVec 8))
(declare-fun stdin7 () (_ BitVec 8))
(assert
 (not (= ((_ zero_extend 16) (concat stdin1 stdin0)) (_ bv19789 32))))
(assert
 (not (not (= ((_ zero_extend 16) (concat stdin1 stdin0)) (_ bv18761 32)))))
(assert
 (not (= ((_ zero_extend 16) (concat stdin1 stdin0)) (_ bv19789 32))))
(assert
 (not (not (= ((_ zero_extend 16) (concat stdin3 stdin2)) (_ bv42 32)))))
(assert
 (= ((_ zero_extend 16) (concat stdin3 stdin2)) (_ bv42 32)))
(assert
 (let ((?x101767 ((_ zero_extend 32) (concat stdin7 (concat stdin6 (concat stdin5 stdin4))))))
 (let ((?x244833 (concat ((_ extract 31 24) ?x101767) (concat ((_ extract 23 16) ?x101767) (concat ((_ extract 15 8) ?x101767) ((_ extract 7 0) ?x101767))))))
 (let ((?x79498 (concat ((_ extract 55 48) ?x101767) (concat ((_ extract 47 40) ?x101767) (concat ((_ extract 39 32) ?x101767) ?x244833)))))
 (let ((?x295885 (concat ((_ extract 63 56) ?x101767) ?x79498)))
 (let ((?x252914 (concat ((_ extract 31 24) ?x295885) (concat ((_ extract 23 16) ?x295885) (concat ((_ extract 15 8) ?x295885) ((_ extract 7 0) ?x295885))))))
 (let ((?x379234 (concat ((_ extract 55 48) ?x295885) (concat ((_ extract 47 40) ?x295885) (concat ((_ extract 39 32) ?x295885) ?x252914)))))
 (let ((?x7270 (concat ((_ extract 63 56) ?x295885) ?x379234)))
 (not (= ?x7270 (_ bv0 64)))))))))))
(assert
 (let ((?x101767 ((_ zero_extend 32) (concat stdin7 (concat stdin6 (concat stdin5 stdin4))))))
 (let ((?x244833 (concat ((_ extract 31 24) ?x101767) (concat ((_ extract 23 16) ?x101767) (concat ((_ extract 15 8) ?x101767) ((_ extract 7 0) ?x101767))))))
 (let ((?x79498 (concat ((_ extract 55 48) ?x101767) (concat ((_ extract 47 40) ?x101767) (concat ((_ extract 39 32) ?x101767) ?x244833)))))
 (let ((?x295885 (concat ((_ extract 63 56) ?x101767) ?x79498)))
 (let ((?x252914 (concat ((_ extract 31 24) ?x295885) (concat ((_ extract 23 16) ?x295885) (concat ((_ extract 15 8) ?x295885) ((_ extract 7 0) ?x295885))))))
 (let ((?x379234 (concat ((_ extract 55 48) ?x295885) (concat ((_ extract 47 40) ?x295885) (concat ((_ extract 39 32) ?x295885) ?x252914)))))
 (let ((?x7270 (concat ((_ extract 63 56) ?x295885) ?x379234)))
 (let ((?x260252 (concat ((_ extract 31 24) ?x7270) (concat ((_ extract 23 16) ?x7270) (concat ((_ extract 15 8) ?x7270) ((_ extract 7 0) ?x7270))))))
 (let ((?x268026 (concat ((_ extract 55 48) ?x7270) (concat ((_ extract 47 40) ?x7270) (concat ((_ extract 39 32) ?x7270) ?x260252)))))
 (let ((?x339629 (concat ((_ extract 63 56) ?x7270) ?x268026)))
 (let ((?x79756 (concat ((_ extract 31 24) ?x339629) (concat ((_ extract 23 16) ?x339629) (concat ((_ extract 15 8) ?x339629) ((_ extract 7 0) ?x339629))))))
 (let ((?x24660 (concat ((_ extract 55 48) ?x339629) (concat ((_ extract 47 40) ?x339629) (concat ((_ extract 39 32) ?x339629) ?x79756)))))
 (let ((?x147847 (concat ((_ extract 63 56) ?x339629) ?x24660)))
 (not (bvugt ?x147847 (_ bv9223372036854775807 64)))))))))))))))))
(assert
 (let ((?x101767 ((_ zero_extend 32) (concat stdin7 (concat stdin6 (concat stdin5 stdin4))))))
 (let ((?x244833 (concat ((_ extract 31 24) ?x101767) (concat ((_ extract 23 16) ?x101767) (concat ((_ extract 15 8) ?x101767) ((_ extract 7 0) ?x101767))))))
 (let ((?x79498 (concat ((_ extract 55 48) ?x101767) (concat ((_ extract 47 40) ?x101767) (concat ((_ extract 39 32) ?x101767) ?x244833)))))
 (let ((?x295885 (concat ((_ extract 63 56) ?x101767) ?x79498)))
 (let ((?x252914 (concat ((_ extract 31 24) ?x295885) (concat ((_ extract 23 16) ?x295885) (concat ((_ extract 15 8) ?x295885) ((_ extract 7 0) ?x295885))))))
 (let ((?x379234 (concat ((_ extract 55 48) ?x295885) (concat ((_ extract 47 40) ?x295885) (concat ((_ extract 39 32) ?x295885) ?x252914)))))
 (let ((?x7270 (concat ((_ extract 63 56) ?x295885) ?x379234)))
 (let ((?x260252 (concat ((_ extract 31 24) ?x7270) (concat ((_ extract 23 16) ?x7270) (concat ((_ extract 15 8) ?x7270) ((_ extract 7 0) ?x7270))))))
 (let ((?x268026 (concat ((_ extract 55 48) ?x7270) (concat ((_ extract 47 40) ?x7270) (concat ((_ extract 39 32) ?x7270) ?x260252)))))
 (let ((?x339629 (concat ((_ extract 63 56) ?x7270) ?x268026)))
 (let ((?x79756 (concat ((_ extract 31 24) ?x339629) (concat ((_ extract 23 16) ?x339629) (concat ((_ extract 15 8) ?x339629) ((_ extract 7 0) ?x339629))))))
 (let ((?x24660 (concat ((_ extract 55 48) ?x339629) (concat ((_ extract 47 40) ?x339629) (concat ((_ extract 39 32) ?x339629) ?x79756)))))
 (let ((?x147847 (concat ((_ extract 63 56) ?x339629) ?x24660)))
 (let ((?x204174 (concat ((_ extract 31 24) ?x147847) (concat ((_ extract 23 16) ?x147847) (concat ((_ extract 15 8) ?x147847) ((_ extract 7 0) ?x147847))))))
 (let ((?x309692 (concat ((_ extract 55 48) ?x147847) (concat ((_ extract 47 40) ?x147847) (concat ((_ extract 39 32) ?x147847) ?x204174)))))
 (let ((?x245395 (concat ((_ extract 63 56) ?x147847) ?x309692)))
 (let ((?x246047 (concat ((_ extract 23 16) (bvadd ?x245395 (_ bv2 64))) (concat ((_ extract 15 8) (bvadd ?x245395 (_ bv2 64))) ((_ extract 7 0) (bvadd ?x245395 (_ bv2 64)))))))
 (let ((?x74991 (concat ((_ extract 39 32) (bvadd ?x245395 (_ bv2 64))) (concat ((_ extract 31 24) (bvadd ?x245395 (_ bv2 64))) ?x246047))))
 (let ((?x130076 (concat ((_ extract 55 48) (bvadd ?x245395 (_ bv2 64))) (concat ((_ extract 47 40) (bvadd ?x245395 (_ bv2 64))) ?x74991))))
 (let ((?x11377 (concat ((_ extract 63 56) (bvadd ?x245395 (_ bv2 64))) ?x130076)))
 (not (bvslt ?x11377 ?x245395)))))))))))))))))))))))
(assert
 (let ((?x101767 ((_ zero_extend 32) (concat stdin7 (concat stdin6 (concat stdin5 stdin4))))))
 (let ((?x244833 (concat ((_ extract 31 24) ?x101767) (concat ((_ extract 23 16) ?x101767) (concat ((_ extract 15 8) ?x101767) ((_ extract 7 0) ?x101767))))))
 (let ((?x79498 (concat ((_ extract 55 48) ?x101767) (concat ((_ extract 47 40) ?x101767) (concat ((_ extract 39 32) ?x101767) ?x244833)))))
 (let ((?x295885 (concat ((_ extract 63 56) ?x101767) ?x79498)))
 (let ((?x252914 (concat ((_ extract 31 24) ?x295885) (concat ((_ extract 23 16) ?x295885) (concat ((_ extract 15 8) ?x295885) ((_ extract 7 0) ?x295885))))))
 (let ((?x379234 (concat ((_ extract 55 48) ?x295885) (concat ((_ extract 47 40) ?x295885) (concat ((_ extract 39 32) ?x295885) ?x252914)))))
 (let ((?x7270 (concat ((_ extract 63 56) ?x295885) ?x379234)))
 (let ((?x260252 (concat ((_ extract 31 24) ?x7270) (concat ((_ extract 23 16) ?x7270) (concat ((_ extract 15 8) ?x7270) ((_ extract 7 0) ?x7270))))))
 (let ((?x268026 (concat ((_ extract 55 48) ?x7270) (concat ((_ extract 47 40) ?x7270) (concat ((_ extract 39 32) ?x7270) ?x260252)))))
 (let ((?x339629 (concat ((_ extract 63 56) ?x7270) ?x268026)))
 (let ((?x79756 (concat ((_ extract 31 24) ?x339629) (concat ((_ extract 23 16) ?x339629) (concat ((_ extract 15 8) ?x339629) ((_ extract 7 0) ?x339629))))))
 (let ((?x24660 (concat ((_ extract 55 48) ?x339629) (concat ((_ extract 47 40) ?x339629) (concat ((_ extract 39 32) ?x339629) ?x79756)))))
 (let ((?x147847 (concat ((_ extract 63 56) ?x339629) ?x24660)))
 (let ((?x204174 (concat ((_ extract 31 24) ?x147847) (concat ((_ extract 23 16) ?x147847) (concat ((_ extract 15 8) ?x147847) ((_ extract 7 0) ?x147847))))))
 (let ((?x309692 (concat ((_ extract 55 48) ?x147847) (concat ((_ extract 47 40) ?x147847) (concat ((_ extract 39 32) ?x147847) ?x204174)))))
 (let ((?x245395 (concat ((_ extract 63 56) ?x147847) ?x309692)))
 (let ((?x320857 (bvadd ?x245395 (_ bv2 64))))
 (let ((?x35872 (concat ((_ extract 31 24) ?x320857) (concat ((_ extract 23 16) ?x320857) (concat ((_ extract 15 8) ?x320857) ((_ extract 7 0) ?x320857))))))
 (let ((?x130076 (concat ((_ extract 55 48) ?x320857) (concat ((_ extract 47 40) ?x320857) (concat ((_ extract 39 32) ?x320857) ?x35872)))))
 (let ((?x11377 (concat ((_ extract 63 56) ?x320857) ?x130076)))
 (not (bvslt ?x11377 (_ bv2 64))))))))))))))))))))))))
(assert
 (let ((?x101767 ((_ zero_extend 32) (concat stdin7 (concat stdin6 (concat stdin5 stdin4))))))
 (let ((?x244833 (concat ((_ extract 31 24) ?x101767) (concat ((_ extract 23 16) ?x101767) (concat ((_ extract 15 8) ?x101767) ((_ extract 7 0) ?x101767))))))
 (let ((?x79498 (concat ((_ extract 55 48) ?x101767) (concat ((_ extract 47 40) ?x101767) (concat ((_ extract 39 32) ?x101767) ?x244833)))))
 (let ((?x295885 (concat ((_ extract 63 56) ?x101767) ?x79498)))
 (let ((?x252914 (concat ((_ extract 31 24) ?x295885) (concat ((_ extract 23 16) ?x295885) (concat ((_ extract 15 8) ?x295885) ((_ extract 7 0) ?x295885))))))
 (let ((?x379234 (concat ((_ extract 55 48) ?x295885) (concat ((_ extract 47 40) ?x295885) (concat ((_ extract 39 32) ?x295885) ?x252914)))))
 (let ((?x7270 (concat ((_ extract 63 56) ?x295885) ?x379234)))
 (let ((?x260252 (concat ((_ extract 31 24) ?x7270) (concat ((_ extract 23 16) ?x7270) (concat ((_ extract 15 8) ?x7270) ((_ extract 7 0) ?x7270))))))
 (let ((?x268026 (concat ((_ extract 55 48) ?x7270) (concat ((_ extract 47 40) ?x7270) (concat ((_ extract 39 32) ?x7270) ?x260252)))))
 (let ((?x339629 (concat ((_ extract 63 56) ?x7270) ?x268026)))
 (let ((?x79756 (concat ((_ extract 31 24) ?x339629) (concat ((_ extract 23 16) ?x339629) (concat ((_ extract 15 8) ?x339629) ((_ extract 7 0) ?x339629))))))
 (let ((?x24660 (concat ((_ extract 55 48) ?x339629) (concat ((_ extract 47 40) ?x339629) (concat ((_ extract 39 32) ?x339629) ?x79756)))))
 (let ((?x147847 (concat ((_ extract 63 56) ?x339629) ?x24660)))
 (let ((?x204174 (concat ((_ extract 31 24) ?x147847) (concat ((_ extract 23 16) ?x147847) (concat ((_ extract 15 8) ?x147847) ((_ extract 7 0) ?x147847))))))
 (let ((?x309692 (concat ((_ extract 55 48) ?x147847) (concat ((_ extract 47 40) ?x147847) (concat ((_ extract 39 32) ?x147847) ?x204174)))))
 (let ((?x245395 (concat ((_ extract 63 56) ?x147847) ?x309692)))
 (let ((?x320857 (bvadd ?x245395 (_ bv2 64))))
 (let ((?x35872 (concat ((_ extract 31 24) ?x320857) (concat ((_ extract 23 16) ?x320857) (concat ((_ extract 15 8) ?x320857) ((_ extract 7 0) ?x320857))))))
 (let ((?x130076 (concat ((_ extract 55 48) ?x320857) (concat ((_ extract 47 40) ?x320857) (concat ((_ extract 39 32) ?x320857) ?x35872)))))
 (let ((?x11377 (concat ((_ extract 63 56) ?x320857) ?x130076)))
 (not (bvsgt ?x11377 (_ bv448 64))))))))))))))))))))))))
(assert
 (let ((?x101767 ((_ zero_extend 32) (concat stdin7 (concat stdin6 (concat stdin5 stdin4))))))
 (let ((?x244833 (concat ((_ extract 31 24) ?x101767) (concat ((_ extract 23 16) ?x101767) (concat ((_ extract 15 8) ?x101767) ((_ extract 7 0) ?x101767))))))
 (let ((?x79498 (concat ((_ extract 55 48) ?x101767) (concat ((_ extract 47 40) ?x101767) (concat ((_ extract 39 32) ?x101767) ?x244833)))))
 (let ((?x295885 (concat ((_ extract 63 56) ?x101767) ?x79498)))
 (let ((?x252914 (concat ((_ extract 31 24) ?x295885) (concat ((_ extract 23 16) ?x295885) (concat ((_ extract 15 8) ?x295885) ((_ extract 7 0) ?x295885))))))
 (let ((?x379234 (concat ((_ extract 55 48) ?x295885) (concat ((_ extract 47 40) ?x295885) (concat ((_ extract 39 32) ?x295885) ?x252914)))))
 (let ((?x7270 (concat ((_ extract 63 56) ?x295885) ?x379234)))
 (let ((?x260252 (concat ((_ extract 31 24) ?x7270) (concat ((_ extract 23 16) ?x7270) (concat ((_ extract 15 8) ?x7270) ((_ extract 7 0) ?x7270))))))
 (let ((?x268026 (concat ((_ extract 55 48) ?x7270) (concat ((_ extract 47 40) ?x7270) (concat ((_ extract 39 32) ?x7270) ?x260252)))))
 (let ((?x339629 (concat ((_ extract 63 56) ?x7270) ?x268026)))
 (let ((?x79756 (concat ((_ extract 31 24) ?x339629) (concat ((_ extract 23 16) ?x339629) (concat ((_ extract 15 8) ?x339629) ((_ extract 7 0) ?x339629))))))
 (let ((?x24660 (concat ((_ extract 55 48) ?x339629) (concat ((_ extract 47 40) ?x339629) (concat ((_ extract 39 32) ?x339629) ?x79756)))))
 (let ((?x147847 (concat ((_ extract 63 56) ?x339629) ?x24660)))
 (let ((?x204174 (concat ((_ extract 31 24) ?x147847) (concat ((_ extract 23 16) ?x147847) (concat ((_ extract 15 8) ?x147847) ((_ extract 7 0) ?x147847))))))
 (let ((?x309692 (concat ((_ extract 55 48) ?x147847) (concat ((_ extract 47 40) ?x147847) (concat ((_ extract 39 32) ?x147847) ?x204174)))))
 (let ((?x245395 (concat ((_ extract 63 56) ?x147847) ?x309692)))
 (let ((?x28215 (bvmul ?x245395 (_ bv1 64))))
 (let ((?x176631 (bvadd ?x28215 (_ bv140175278141440 64))))
 (let ((?x264123 (concat ((_ extract 31 24) ?x176631) (concat ((_ extract 23 16) ?x176631) (concat ((_ extract 15 8) ?x176631) ((_ extract 7 0) ?x176631))))))
 (let ((?x272562 (concat ((_ extract 55 48) ?x176631) (concat ((_ extract 47 40) ?x176631) (concat ((_ extract 39 32) ?x176631) ?x264123)))))
 (= (concat ((_ extract 63 56) ?x176631) ?x272562) (_ bv140175278141538 64)))))))))))))))))))))))
(assert
 (let ((?x101767 ((_ zero_extend 32) (concat stdin7 (concat stdin6 (concat stdin5 stdin4))))))
 (let ((?x244833 (concat ((_ extract 31 24) ?x101767) (concat ((_ extract 23 16) ?x101767) (concat ((_ extract 15 8) ?x101767) ((_ extract 7 0) ?x101767))))))
 (let ((?x79498 (concat ((_ extract 55 48) ?x101767) (concat ((_ extract 47 40) ?x101767) (concat ((_ extract 39 32) ?x101767) ?x244833)))))
 (let ((?x295885 (concat ((_ extract 63 56) ?x101767) ?x79498)))
 (let ((?x252914 (concat ((_ extract 31 24) ?x295885) (concat ((_ extract 23 16) ?x295885) (concat ((_ extract 15 8) ?x295885) ((_ extract 7 0) ?x295885))))))
 (let ((?x379234 (concat ((_ extract 55 48) ?x295885) (concat ((_ extract 47 40) ?x295885) (concat ((_ extract 39 32) ?x295885) ?x252914)))))
 (let ((?x7270 (concat ((_ extract 63 56) ?x295885) ?x379234)))
 (let ((?x260252 (concat ((_ extract 31 24) ?x7270) (concat ((_ extract 23 16) ?x7270) (concat ((_ extract 15 8) ?x7270) ((_ extract 7 0) ?x7270))))))
 (let ((?x268026 (concat ((_ extract 55 48) ?x7270) (concat ((_ extract 47 40) ?x7270) (concat ((_ extract 39 32) ?x7270) ?x260252)))))
 (let ((?x339629 (concat ((_ extract 63 56) ?x7270) ?x268026)))
 (let ((?x79756 (concat ((_ extract 31 24) ?x339629) (concat ((_ extract 23 16) ?x339629) (concat ((_ extract 15 8) ?x339629) ((_ extract 7 0) ?x339629))))))
 (let ((?x24660 (concat ((_ extract 55 48) ?x339629) (concat ((_ extract 47 40) ?x339629) (concat ((_ extract 39 32) ?x339629) ?x79756)))))
 (let ((?x147847 (concat ((_ extract 63 56) ?x339629) ?x24660)))
 (let ((?x204174 (concat ((_ extract 31 24) ?x147847) (concat ((_ extract 23 16) ?x147847) (concat ((_ extract 15 8) ?x147847) ((_ extract 7 0) ?x147847))))))
 (let ((?x309692 (concat ((_ extract 55 48) ?x147847) (concat ((_ extract 47 40) ?x147847) (concat ((_ extract 39 32) ?x147847) ?x204174)))))
 (let ((?x245395 (concat ((_ extract 63 56) ?x147847) ?x309692)))
 (let ((?x320857 (bvadd ?x245395 (_ bv2 64))))
 (let ((?x35872 (concat ((_ extract 31 24) ?x320857) (concat ((_ extract 23 16) ?x320857) (concat ((_ extract 15 8) ?x320857) ((_ extract 7 0) ?x320857))))))
 (let ((?x130076 (concat ((_ extract 55 48) ?x320857) (concat ((_ extract 47 40) ?x320857) (concat ((_ extract 39 32) ?x320857) ?x35872)))))
 (let ((?x11377 (concat ((_ extract 63 56) ?x320857) ?x130076)))
 (let ((?x125486 (concat ((_ extract 23 16) (bvadd ?x11377 (_ bv216 64))) (concat ((_ extract 15 8) (bvadd ?x11377 (_ bv216 64))) ((_ extract 7 0) (bvadd ?x11377 (_ bv216 64)))))))
 (let ((?x253910 (concat ((_ extract 39 32) (bvadd ?x11377 (_ bv216 64))) (concat ((_ extract 31 24) (bvadd ?x11377 (_ bv216 64))) ?x125486))))
 (let ((?x301929 (concat ((_ extract 55 48) (bvadd ?x11377 (_ bv216 64))) (concat ((_ extract 47 40) (bvadd ?x11377 (_ bv216 64))) ?x253910))))
 (let ((?x58758 (concat ((_ extract 63 56) (bvadd ?x11377 (_ bv216 64))) ?x301929)))
 (not (bvslt ?x58758 ?x11377)))))))))))))))))))))))))))
(assert
 (let ((?x101767 ((_ zero_extend 32) (concat stdin7 (concat stdin6 (concat stdin5 stdin4))))))
 (let ((?x244833 (concat ((_ extract 31 24) ?x101767) (concat ((_ extract 23 16) ?x101767) (concat ((_ extract 15 8) ?x101767) ((_ extract 7 0) ?x101767))))))
 (let ((?x79498 (concat ((_ extract 55 48) ?x101767) (concat ((_ extract 47 40) ?x101767) (concat ((_ extract 39 32) ?x101767) ?x244833)))))
 (let ((?x295885 (concat ((_ extract 63 56) ?x101767) ?x79498)))
 (let ((?x252914 (concat ((_ extract 31 24) ?x295885) (concat ((_ extract 23 16) ?x295885) (concat ((_ extract 15 8) ?x295885) ((_ extract 7 0) ?x295885))))))
 (let ((?x379234 (concat ((_ extract 55 48) ?x295885) (concat ((_ extract 47 40) ?x295885) (concat ((_ extract 39 32) ?x295885) ?x252914)))))
 (let ((?x7270 (concat ((_ extract 63 56) ?x295885) ?x379234)))
 (let ((?x260252 (concat ((_ extract 31 24) ?x7270) (concat ((_ extract 23 16) ?x7270) (concat ((_ extract 15 8) ?x7270) ((_ extract 7 0) ?x7270))))))
 (let ((?x268026 (concat ((_ extract 55 48) ?x7270) (concat ((_ extract 47 40) ?x7270) (concat ((_ extract 39 32) ?x7270) ?x260252)))))
 (let ((?x339629 (concat ((_ extract 63 56) ?x7270) ?x268026)))
 (let ((?x79756 (concat ((_ extract 31 24) ?x339629) (concat ((_ extract 23 16) ?x339629) (concat ((_ extract 15 8) ?x339629) ((_ extract 7 0) ?x339629))))))
 (let ((?x24660 (concat ((_ extract 55 48) ?x339629) (concat ((_ extract 47 40) ?x339629) (concat ((_ extract 39 32) ?x339629) ?x79756)))))
 (let ((?x147847 (concat ((_ extract 63 56) ?x339629) ?x24660)))
 (let ((?x204174 (concat ((_ extract 31 24) ?x147847) (concat ((_ extract 23 16) ?x147847) (concat ((_ extract 15 8) ?x147847) ((_ extract 7 0) ?x147847))))))
 (let ((?x309692 (concat ((_ extract 55 48) ?x147847) (concat ((_ extract 47 40) ?x147847) (concat ((_ extract 39 32) ?x147847) ?x204174)))))
 (let ((?x245395 (concat ((_ extract 63 56) ?x147847) ?x309692)))
 (let ((?x320857 (bvadd ?x245395 (_ bv2 64))))
 (let ((?x35872 (concat ((_ extract 31 24) ?x320857) (concat ((_ extract 23 16) ?x320857) (concat ((_ extract 15 8) ?x320857) ((_ extract 7 0) ?x320857))))))
 (let ((?x130076 (concat ((_ extract 55 48) ?x320857) (concat ((_ extract 47 40) ?x320857) (concat ((_ extract 39 32) ?x320857) ?x35872)))))
 (let ((?x11377 (concat ((_ extract 63 56) ?x320857) ?x130076)))
 (let ((?x307147 (bvadd ?x11377 (_ bv216 64))))
 (let ((?x105712 (concat ((_ extract 31 24) ?x307147) (concat ((_ extract 23 16) ?x307147) (concat ((_ extract 15 8) ?x307147) ((_ extract 7 0) ?x307147))))))
 (let ((?x301929 (concat ((_ extract 55 48) ?x307147) (concat ((_ extract 47 40) ?x307147) (concat ((_ extract 39 32) ?x307147) ?x105712)))))
 (let ((?x58758 (concat ((_ extract 63 56) ?x307147) ?x301929)))
 (not (bvslt ?x58758 (_ bv216 64))))))))))))))))))))))))))))
(assert
 (let ((?x101767 ((_ zero_extend 32) (concat stdin7 (concat stdin6 (concat stdin5 stdin4))))))
 (let ((?x244833 (concat ((_ extract 31 24) ?x101767) (concat ((_ extract 23 16) ?x101767) (concat ((_ extract 15 8) ?x101767) ((_ extract 7 0) ?x101767))))))
 (let ((?x79498 (concat ((_ extract 55 48) ?x101767) (concat ((_ extract 47 40) ?x101767) (concat ((_ extract 39 32) ?x101767) ?x244833)))))
 (let ((?x295885 (concat ((_ extract 63 56) ?x101767) ?x79498)))
 (let ((?x252914 (concat ((_ extract 31 24) ?x295885) (concat ((_ extract 23 16) ?x295885) (concat ((_ extract 15 8) ?x295885) ((_ extract 7 0) ?x295885))))))
 (let ((?x379234 (concat ((_ extract 55 48) ?x295885) (concat ((_ extract 47 40) ?x295885) (concat ((_ extract 39 32) ?x295885) ?x252914)))))
 (let ((?x7270 (concat ((_ extract 63 56) ?x295885) ?x379234)))
 (let ((?x260252 (concat ((_ extract 31 24) ?x7270) (concat ((_ extract 23 16) ?x7270) (concat ((_ extract 15 8) ?x7270) ((_ extract 7 0) ?x7270))))))
 (let ((?x268026 (concat ((_ extract 55 48) ?x7270) (concat ((_ extract 47 40) ?x7270) (concat ((_ extract 39 32) ?x7270) ?x260252)))))
 (let ((?x339629 (concat ((_ extract 63 56) ?x7270) ?x268026)))
 (let ((?x79756 (concat ((_ extract 31 24) ?x339629) (concat ((_ extract 23 16) ?x339629) (concat ((_ extract 15 8) ?x339629) ((_ extract 7 0) ?x339629))))))
 (let ((?x24660 (concat ((_ extract 55 48) ?x339629) (concat ((_ extract 47 40) ?x339629) (concat ((_ extract 39 32) ?x339629) ?x79756)))))
 (let ((?x147847 (concat ((_ extract 63 56) ?x339629) ?x24660)))
 (let ((?x204174 (concat ((_ extract 31 24) ?x147847) (concat ((_ extract 23 16) ?x147847) (concat ((_ extract 15 8) ?x147847) ((_ extract 7 0) ?x147847))))))
 (let ((?x309692 (concat ((_ extract 55 48) ?x147847) (concat ((_ extract 47 40) ?x147847) (concat ((_ extract 39 32) ?x147847) ?x204174)))))
 (let ((?x245395 (concat ((_ extract 63 56) ?x147847) ?x309692)))
 (let ((?x320857 (bvadd ?x245395 (_ bv2 64))))
 (let ((?x35872 (concat ((_ extract 31 24) ?x320857) (concat ((_ extract 23 16) ?x320857) (concat ((_ extract 15 8) ?x320857) ((_ extract 7 0) ?x320857))))))
 (let ((?x130076 (concat ((_ extract 55 48) ?x320857) (concat ((_ extract 47 40) ?x320857) (concat ((_ extract 39 32) ?x320857) ?x35872)))))
 (let ((?x11377 (concat ((_ extract 63 56) ?x320857) ?x130076)))
 (let ((?x307147 (bvadd ?x11377 (_ bv216 64))))
 (let ((?x105712 (concat ((_ extract 31 24) ?x307147) (concat ((_ extract 23 16) ?x307147) (concat ((_ extract 15 8) ?x307147) ((_ extract 7 0) ?x307147))))))
 (let ((?x301929 (concat ((_ extract 55 48) ?x307147) (concat ((_ extract 47 40) ?x307147) (concat ((_ extract 39 32) ?x307147) ?x105712)))))
 (let ((?x58758 (concat ((_ extract 63 56) ?x307147) ?x301929)))
 (not (bvsgt ?x58758 (_ bv448 64))))))))))))))))))))))))))))
(assert
 (let ((?x101767 ((_ zero_extend 32) (concat stdin7 (concat stdin6 (concat stdin5 stdin4))))))
 (let ((?x244833 (concat ((_ extract 31 24) ?x101767) (concat ((_ extract 23 16) ?x101767) (concat ((_ extract 15 8) ?x101767) ((_ extract 7 0) ?x101767))))))
 (let ((?x79498 (concat ((_ extract 55 48) ?x101767) (concat ((_ extract 47 40) ?x101767) (concat ((_ extract 39 32) ?x101767) ?x244833)))))
 (let ((?x295885 (concat ((_ extract 63 56) ?x101767) ?x79498)))
 (let ((?x252914 (concat ((_ extract 31 24) ?x295885) (concat ((_ extract 23 16) ?x295885) (concat ((_ extract 15 8) ?x295885) ((_ extract 7 0) ?x295885))))))
 (let ((?x379234 (concat ((_ extract 55 48) ?x295885) (concat ((_ extract 47 40) ?x295885) (concat ((_ extract 39 32) ?x295885) ?x252914)))))
 (let ((?x7270 (concat ((_ extract 63 56) ?x295885) ?x379234)))
 (let ((?x260252 (concat ((_ extract 31 24) ?x7270) (concat ((_ extract 23 16) ?x7270) (concat ((_ extract 15 8) ?x7270) ((_ extract 7 0) ?x7270))))))
 (let ((?x268026 (concat ((_ extract 55 48) ?x7270) (concat ((_ extract 47 40) ?x7270) (concat ((_ extract 39 32) ?x7270) ?x260252)))))
 (let ((?x339629 (concat ((_ extract 63 56) ?x7270) ?x268026)))
 (let ((?x79756 (concat ((_ extract 31 24) ?x339629) (concat ((_ extract 23 16) ?x339629) (concat ((_ extract 15 8) ?x339629) ((_ extract 7 0) ?x339629))))))
 (let ((?x24660 (concat ((_ extract 55 48) ?x339629) (concat ((_ extract 47 40) ?x339629) (concat ((_ extract 39 32) ?x339629) ?x79756)))))
 (let ((?x147847 (concat ((_ extract 63 56) ?x339629) ?x24660)))
 (let ((?x204174 (concat ((_ extract 31 24) ?x147847) (concat ((_ extract 23 16) ?x147847) (concat ((_ extract 15 8) ?x147847) ((_ extract 7 0) ?x147847))))))
 (let ((?x309692 (concat ((_ extract 55 48) ?x147847) (concat ((_ extract 47 40) ?x147847) (concat ((_ extract 39 32) ?x147847) ?x204174)))))
 (let ((?x245395 (concat ((_ extract 63 56) ?x147847) ?x309692)))
 (let ((?x320857 (bvadd ?x245395 (_ bv2 64))))
 (let ((?x35872 (concat ((_ extract 31 24) ?x320857) (concat ((_ extract 23 16) ?x320857) (concat ((_ extract 15 8) ?x320857) ((_ extract 7 0) ?x320857))))))
 (let ((?x130076 (concat ((_ extract 55 48) ?x320857) (concat ((_ extract 47 40) ?x320857) (concat ((_ extract 39 32) ?x320857) ?x35872)))))
 (let ((?x11377 (concat ((_ extract 63 56) ?x320857) ?x130076)))
 (let ((?x164879 (bvmul ?x11377 (_ bv1 64))))
 (let ((?x114438 (bvadd ?x164879 (_ bv140175278141440 64))))
 (let ((?x233385 (concat ((_ extract 31 24) ?x114438) (concat ((_ extract 23 16) ?x114438) (concat ((_ extract 15 8) ?x114438) ((_ extract 7 0) ?x114438))))))
 (let ((?x145590 (concat ((_ extract 55 48) ?x114438) (concat ((_ extract 47 40) ?x114438) (concat ((_ extract 39 32) ?x114438) ?x233385)))))
 (= (concat ((_ extract 63 56) ?x114438) ?x145590) (_ bv140175278141540 64)))))))))))))))))))))))))))
(assert
 (let ((?x101767 ((_ zero_extend 32) (concat stdin7 (concat stdin6 (concat stdin5 stdin4))))))
 (let ((?x244833 (concat ((_ extract 31 24) ?x101767) (concat ((_ extract 23 16) ?x101767) (concat ((_ extract 15 8) ?x101767) ((_ extract 7 0) ?x101767))))))
 (let ((?x79498 (concat ((_ extract 55 48) ?x101767) (concat ((_ extract 47 40) ?x101767) (concat ((_ extract 39 32) ?x101767) ?x244833)))))
 (let ((?x295885 (concat ((_ extract 63 56) ?x101767) ?x79498)))
 (let ((?x252914 (concat ((_ extract 31 24) ?x295885) (concat ((_ extract 23 16) ?x295885) (concat ((_ extract 15 8) ?x295885) ((_ extract 7 0) ?x295885))))))
 (let ((?x379234 (concat ((_ extract 55 48) ?x295885) (concat ((_ extract 47 40) ?x295885) (concat ((_ extract 39 32) ?x295885) ?x252914)))))
 (let ((?x7270 (concat ((_ extract 63 56) ?x295885) ?x379234)))
 (let ((?x260252 (concat ((_ extract 31 24) ?x7270) (concat ((_ extract 23 16) ?x7270) (concat ((_ extract 15 8) ?x7270) ((_ extract 7 0) ?x7270))))))
 (let ((?x268026 (concat ((_ extract 55 48) ?x7270) (concat ((_ extract 47 40) ?x7270) (concat ((_ extract 39 32) ?x7270) ?x260252)))))
 (let ((?x339629 (concat ((_ extract 63 56) ?x7270) ?x268026)))
 (let ((?x79756 (concat ((_ extract 31 24) ?x339629) (concat ((_ extract 23 16) ?x339629) (concat ((_ extract 15 8) ?x339629) ((_ extract 7 0) ?x339629))))))
 (let ((?x24660 (concat ((_ extract 55 48) ?x339629) (concat ((_ extract 47 40) ?x339629) (concat ((_ extract 39 32) ?x339629) ?x79756)))))
 (let ((?x147847 (concat ((_ extract 63 56) ?x339629) ?x24660)))
 (let ((?x204174 (concat ((_ extract 31 24) ?x147847) (concat ((_ extract 23 16) ?x147847) (concat ((_ extract 15 8) ?x147847) ((_ extract 7 0) ?x147847))))))
 (let ((?x309692 (concat ((_ extract 55 48) ?x147847) (concat ((_ extract 47 40) ?x147847) (concat ((_ extract 39 32) ?x147847) ?x204174)))))
 (let ((?x245395 (concat ((_ extract 63 56) ?x147847) ?x309692)))
 (let ((?x320857 (bvadd ?x245395 (_ bv2 64))))
 (let ((?x35872 (concat ((_ extract 31 24) ?x320857) (concat ((_ extract 23 16) ?x320857) (concat ((_ extract 15 8) ?x320857) ((_ extract 7 0) ?x320857))))))
 (let ((?x130076 (concat ((_ extract 55 48) ?x320857) (concat ((_ extract 47 40) ?x320857) (concat ((_ extract 39 32) ?x320857) ?x35872)))))
 (let ((?x11377 (concat ((_ extract 63 56) ?x320857) ?x130076)))
 (let ((?x307147 (bvadd ?x11377 (_ bv216 64))))
 (let ((?x105712 (concat ((_ extract 31 24) ?x307147) (concat ((_ extract 23 16) ?x307147) (concat ((_ extract 15 8) ?x307147) ((_ extract 7 0) ?x307147))))))
 (let ((?x301929 (concat ((_ extract 55 48) ?x307147) (concat ((_ extract 47 40) ?x307147) (concat ((_ extract 39 32) ?x307147) ?x105712)))))
 (let ((?x58758 (concat ((_ extract 63 56) ?x307147) ?x301929)))
 (let ((?x5751 (concat ((_ extract 23 16) (bvadd ?x58758 (_ bv4 64))) (concat ((_ extract 15 8) (bvadd ?x58758 (_ bv4 64))) ((_ extract 7 0) (bvadd ?x58758 (_ bv4 64)))))))
 (let ((?x353062 (concat ((_ extract 39 32) (bvadd ?x58758 (_ bv4 64))) (concat ((_ extract 31 24) (bvadd ?x58758 (_ bv4 64))) ?x5751))))
 (let ((?x195557 (concat ((_ extract 55 48) (bvadd ?x58758 (_ bv4 64))) (concat ((_ extract 47 40) (bvadd ?x58758 (_ bv4 64))) ?x353062))))
 (let ((?x266231 (concat ((_ extract 63 56) (bvadd ?x58758 (_ bv4 64))) ?x195557)))
 (not (bvslt ?x266231 ?x58758)))))))))))))))))))))))))))))))
(assert
 (let ((?x101767 ((_ zero_extend 32) (concat stdin7 (concat stdin6 (concat stdin5 stdin4))))))
 (let ((?x244833 (concat ((_ extract 31 24) ?x101767) (concat ((_ extract 23 16) ?x101767) (concat ((_ extract 15 8) ?x101767) ((_ extract 7 0) ?x101767))))))
 (let ((?x79498 (concat ((_ extract 55 48) ?x101767) (concat ((_ extract 47 40) ?x101767) (concat ((_ extract 39 32) ?x101767) ?x244833)))))
 (let ((?x295885 (concat ((_ extract 63 56) ?x101767) ?x79498)))
 (let ((?x252914 (concat ((_ extract 31 24) ?x295885) (concat ((_ extract 23 16) ?x295885) (concat ((_ extract 15 8) ?x295885) ((_ extract 7 0) ?x295885))))))
 (let ((?x379234 (concat ((_ extract 55 48) ?x295885) (concat ((_ extract 47 40) ?x295885) (concat ((_ extract 39 32) ?x295885) ?x252914)))))
 (let ((?x7270 (concat ((_ extract 63 56) ?x295885) ?x379234)))
 (let ((?x260252 (concat ((_ extract 31 24) ?x7270) (concat ((_ extract 23 16) ?x7270) (concat ((_ extract 15 8) ?x7270) ((_ extract 7 0) ?x7270))))))
 (let ((?x268026 (concat ((_ extract 55 48) ?x7270) (concat ((_ extract 47 40) ?x7270) (concat ((_ extract 39 32) ?x7270) ?x260252)))))
 (let ((?x339629 (concat ((_ extract 63 56) ?x7270) ?x268026)))
 (let ((?x79756 (concat ((_ extract 31 24) ?x339629) (concat ((_ extract 23 16) ?x339629) (concat ((_ extract 15 8) ?x339629) ((_ extract 7 0) ?x339629))))))
 (let ((?x24660 (concat ((_ extract 55 48) ?x339629) (concat ((_ extract 47 40) ?x339629) (concat ((_ extract 39 32) ?x339629) ?x79756)))))
 (let ((?x147847 (concat ((_ extract 63 56) ?x339629) ?x24660)))
 (let ((?x204174 (concat ((_ extract 31 24) ?x147847) (concat ((_ extract 23 16) ?x147847) (concat ((_ extract 15 8) ?x147847) ((_ extract 7 0) ?x147847))))))
 (let ((?x309692 (concat ((_ extract 55 48) ?x147847) (concat ((_ extract 47 40) ?x147847) (concat ((_ extract 39 32) ?x147847) ?x204174)))))
 (let ((?x245395 (concat ((_ extract 63 56) ?x147847) ?x309692)))
 (let ((?x320857 (bvadd ?x245395 (_ bv2 64))))
 (let ((?x35872 (concat ((_ extract 31 24) ?x320857) (concat ((_ extract 23 16) ?x320857) (concat ((_ extract 15 8) ?x320857) ((_ extract 7 0) ?x320857))))))
 (let ((?x130076 (concat ((_ extract 55 48) ?x320857) (concat ((_ extract 47 40) ?x320857) (concat ((_ extract 39 32) ?x320857) ?x35872)))))
 (let ((?x11377 (concat ((_ extract 63 56) ?x320857) ?x130076)))
 (let ((?x307147 (bvadd ?x11377 (_ bv216 64))))
 (let ((?x105712 (concat ((_ extract 31 24) ?x307147) (concat ((_ extract 23 16) ?x307147) (concat ((_ extract 15 8) ?x307147) ((_ extract 7 0) ?x307147))))))
 (let ((?x301929 (concat ((_ extract 55 48) ?x307147) (concat ((_ extract 47 40) ?x307147) (concat ((_ extract 39 32) ?x307147) ?x105712)))))
 (let ((?x58758 (concat ((_ extract 63 56) ?x307147) ?x301929)))
 (let ((?x261197 (bvadd ?x58758 (_ bv4 64))))
 (let ((?x201984 (concat ((_ extract 31 24) ?x261197) (concat ((_ extract 23 16) ?x261197) (concat ((_ extract 15 8) ?x261197) ((_ extract 7 0) ?x261197))))))
 (let ((?x195557 (concat ((_ extract 55 48) ?x261197) (concat ((_ extract 47 40) ?x261197) (concat ((_ extract 39 32) ?x261197) ?x201984)))))
 (let ((?x266231 (concat ((_ extract 63 56) ?x261197) ?x195557)))
 (not (bvslt ?x266231 (_ bv4 64))))))))))))))))))))))))))))))))
(assert
 (let ((?x101767 ((_ zero_extend 32) (concat stdin7 (concat stdin6 (concat stdin5 stdin4))))))
 (let ((?x244833 (concat ((_ extract 31 24) ?x101767) (concat ((_ extract 23 16) ?x101767) (concat ((_ extract 15 8) ?x101767) ((_ extract 7 0) ?x101767))))))
 (let ((?x79498 (concat ((_ extract 55 48) ?x101767) (concat ((_ extract 47 40) ?x101767) (concat ((_ extract 39 32) ?x101767) ?x244833)))))
 (let ((?x295885 (concat ((_ extract 63 56) ?x101767) ?x79498)))
 (let ((?x252914 (concat ((_ extract 31 24) ?x295885) (concat ((_ extract 23 16) ?x295885) (concat ((_ extract 15 8) ?x295885) ((_ extract 7 0) ?x295885))))))
 (let ((?x379234 (concat ((_ extract 55 48) ?x295885) (concat ((_ extract 47 40) ?x295885) (concat ((_ extract 39 32) ?x295885) ?x252914)))))
 (let ((?x7270 (concat ((_ extract 63 56) ?x295885) ?x379234)))
 (let ((?x260252 (concat ((_ extract 31 24) ?x7270) (concat ((_ extract 23 16) ?x7270) (concat ((_ extract 15 8) ?x7270) ((_ extract 7 0) ?x7270))))))
 (let ((?x268026 (concat ((_ extract 55 48) ?x7270) (concat ((_ extract 47 40) ?x7270) (concat ((_ extract 39 32) ?x7270) ?x260252)))))
 (let ((?x339629 (concat ((_ extract 63 56) ?x7270) ?x268026)))
 (let ((?x79756 (concat ((_ extract 31 24) ?x339629) (concat ((_ extract 23 16) ?x339629) (concat ((_ extract 15 8) ?x339629) ((_ extract 7 0) ?x339629))))))
 (let ((?x24660 (concat ((_ extract 55 48) ?x339629) (concat ((_ extract 47 40) ?x339629) (concat ((_ extract 39 32) ?x339629) ?x79756)))))
 (let ((?x147847 (concat ((_ extract 63 56) ?x339629) ?x24660)))
 (let ((?x204174 (concat ((_ extract 31 24) ?x147847) (concat ((_ extract 23 16) ?x147847) (concat ((_ extract 15 8) ?x147847) ((_ extract 7 0) ?x147847))))))
 (let ((?x309692 (concat ((_ extract 55 48) ?x147847) (concat ((_ extract 47 40) ?x147847) (concat ((_ extract 39 32) ?x147847) ?x204174)))))
 (let ((?x245395 (concat ((_ extract 63 56) ?x147847) ?x309692)))
 (let ((?x320857 (bvadd ?x245395 (_ bv2 64))))
 (let ((?x35872 (concat ((_ extract 31 24) ?x320857) (concat ((_ extract 23 16) ?x320857) (concat ((_ extract 15 8) ?x320857) ((_ extract 7 0) ?x320857))))))
 (let ((?x130076 (concat ((_ extract 55 48) ?x320857) (concat ((_ extract 47 40) ?x320857) (concat ((_ extract 39 32) ?x320857) ?x35872)))))
 (let ((?x11377 (concat ((_ extract 63 56) ?x320857) ?x130076)))
 (let ((?x307147 (bvadd ?x11377 (_ bv216 64))))
 (let ((?x105712 (concat ((_ extract 31 24) ?x307147) (concat ((_ extract 23 16) ?x307147) (concat ((_ extract 15 8) ?x307147) ((_ extract 7 0) ?x307147))))))
 (let ((?x301929 (concat ((_ extract 55 48) ?x307147) (concat ((_ extract 47 40) ?x307147) (concat ((_ extract 39 32) ?x307147) ?x105712)))))
 (let ((?x58758 (concat ((_ extract 63 56) ?x307147) ?x301929)))
 (let ((?x261197 (bvadd ?x58758 (_ bv4 64))))
 (let ((?x201984 (concat ((_ extract 31 24) ?x261197) (concat ((_ extract 23 16) ?x261197) (concat ((_ extract 15 8) ?x261197) ((_ extract 7 0) ?x261197))))))
 (let ((?x195557 (concat ((_ extract 55 48) ?x261197) (concat ((_ extract 47 40) ?x261197) (concat ((_ extract 39 32) ?x261197) ?x201984)))))
 (let ((?x266231 (concat ((_ extract 63 56) ?x261197) ?x195557)))
 (not (bvsgt ?x266231 (_ bv448 64))))))))))))))))))))))))))))))))
(assert
 (let ((?x101767 ((_ zero_extend 32) (concat stdin7 (concat stdin6 (concat stdin5 stdin4))))))
 (let ((?x244833 (concat ((_ extract 31 24) ?x101767) (concat ((_ extract 23 16) ?x101767) (concat ((_ extract 15 8) ?x101767) ((_ extract 7 0) ?x101767))))))
 (let ((?x79498 (concat ((_ extract 55 48) ?x101767) (concat ((_ extract 47 40) ?x101767) (concat ((_ extract 39 32) ?x101767) ?x244833)))))
 (let ((?x295885 (concat ((_ extract 63 56) ?x101767) ?x79498)))
 (let ((?x252914 (concat ((_ extract 31 24) ?x295885) (concat ((_ extract 23 16) ?x295885) (concat ((_ extract 15 8) ?x295885) ((_ extract 7 0) ?x295885))))))
 (let ((?x379234 (concat ((_ extract 55 48) ?x295885) (concat ((_ extract 47 40) ?x295885) (concat ((_ extract 39 32) ?x295885) ?x252914)))))
 (let ((?x7270 (concat ((_ extract 63 56) ?x295885) ?x379234)))
 (let ((?x260252 (concat ((_ extract 31 24) ?x7270) (concat ((_ extract 23 16) ?x7270) (concat ((_ extract 15 8) ?x7270) ((_ extract 7 0) ?x7270))))))
 (let ((?x268026 (concat ((_ extract 55 48) ?x7270) (concat ((_ extract 47 40) ?x7270) (concat ((_ extract 39 32) ?x7270) ?x260252)))))
 (let ((?x339629 (concat ((_ extract 63 56) ?x7270) ?x268026)))
 (let ((?x79756 (concat ((_ extract 31 24) ?x339629) (concat ((_ extract 23 16) ?x339629) (concat ((_ extract 15 8) ?x339629) ((_ extract 7 0) ?x339629))))))
 (let ((?x24660 (concat ((_ extract 55 48) ?x339629) (concat ((_ extract 47 40) ?x339629) (concat ((_ extract 39 32) ?x339629) ?x79756)))))
 (let ((?x147847 (concat ((_ extract 63 56) ?x339629) ?x24660)))
 (let ((?x204174 (concat ((_ extract 31 24) ?x147847) (concat ((_ extract 23 16) ?x147847) (concat ((_ extract 15 8) ?x147847) ((_ extract 7 0) ?x147847))))))
 (let ((?x309692 (concat ((_ extract 55 48) ?x147847) (concat ((_ extract 47 40) ?x147847) (concat ((_ extract 39 32) ?x147847) ?x204174)))))
 (let ((?x245395 (concat ((_ extract 63 56) ?x147847) ?x309692)))
 (let ((?x320857 (bvadd ?x245395 (_ bv2 64))))
 (let ((?x35872 (concat ((_ extract 31 24) ?x320857) (concat ((_ extract 23 16) ?x320857) (concat ((_ extract 15 8) ?x320857) ((_ extract 7 0) ?x320857))))))
 (let ((?x130076 (concat ((_ extract 55 48) ?x320857) (concat ((_ extract 47 40) ?x320857) (concat ((_ extract 39 32) ?x320857) ?x35872)))))
 (let ((?x11377 (concat ((_ extract 63 56) ?x320857) ?x130076)))
 (let ((?x307147 (bvadd ?x11377 (_ bv216 64))))
 (let ((?x105712 (concat ((_ extract 31 24) ?x307147) (concat ((_ extract 23 16) ?x307147) (concat ((_ extract 15 8) ?x307147) ((_ extract 7 0) ?x307147))))))
 (let ((?x301929 (concat ((_ extract 55 48) ?x307147) (concat ((_ extract 47 40) ?x307147) (concat ((_ extract 39 32) ?x307147) ?x105712)))))
 (let ((?x58758 (concat ((_ extract 63 56) ?x307147) ?x301929)))
 (let ((?x140664 (bvmul ?x58758 (_ bv1 64))))
 (let ((?x326493 (bvadd ?x140664 (_ bv140175278141440 64))))
 (let ((?x353094 (concat ((_ extract 31 24) ?x326493) (concat ((_ extract 23 16) ?x326493) (concat ((_ extract 15 8) ?x326493) ((_ extract 7 0) ?x326493))))))
 (let ((?x56156 (concat ((_ extract 55 48) ?x326493) (concat ((_ extract 47 40) ?x326493) (concat ((_ extract 39 32) ?x326493) ?x353094)))))
 (= (concat ((_ extract 63 56) ?x326493) ?x56156) (_ bv140175278141756 64)))))))))))))))))))))))))))))))
(check-sat)
